(set-logic ALL)
(declare-fun var0 () String)
(assert (str.in_re var0 (re.++ (re.union (re.+ (str.to_re "0")) (re.+ (str.to_re "111"))) (re.++ (re.+ (re.* (str.to_re "222"))) (re.++ (re.+ (re.union (str.to_re "3") (str.to_re "44"))) (re.++ (re.+ (re.+ (str.to_re "5"))) (re.++ (re.* (re.* (str.to_re "66"))) (re.++ (re.+ (re.+ (str.to_re "7"))) (re.++ (re.+ (re.+ (str.to_re "8"))) (re.++ (re.* (re.union (str.to_re "999") (str.to_re "aa"))) (re.++ (re.union (re.union (str.to_re "bbb") (str.to_re "ccc")) (re.union (str.to_re "ddd") (str.to_re "eee"))) (re.++ (re.* (re.+ (str.to_re "fff"))) (re.++ (re.union (re.* (str.to_re "gg")) (re.* (str.to_re "hh"))) (re.++ (re.+ (re.* (str.to_re "ii"))) (re.++ (re.+ (re.* (str.to_re "jjj"))) (re.++ (re.union (re.* (str.to_re "kkk")) (re.* (str.to_re "lll"))) (re.++ (re.+ (re.+ (str.to_re "mmm"))) (re.++ (re.union (re.union (str.to_re "n") (str.to_re "ooo")) (re.union (str.to_re "pp") (str.to_re "qq"))) (re.++ (re.union (re.union (str.to_re "rr") (str.to_re "ss")) (re.union (str.to_re "tt") (str.to_re "uuu"))) (re.++ (re.* (re.union (str.to_re "vv") (str.to_re "ww"))) (re.++ (re.* (re.* (str.to_re "x"))) (re.++ (re.union (re.union (str.to_re "yy") (str.to_re "zz")) (re.union (str.to_re "AA") (str.to_re "BB"))) (re.++ (re.+ (re.union (str.to_re "CC") (str.to_re "DD"))) (re.++ (re.* (re.+ (str.to_re "EEE"))) (re.++ (re.* (re.+ (str.to_re "F"))) (re.++ (re.* (re.union (str.to_re "GG") (str.to_re "H"))) (re.++ (re.+ (re.* (str.to_re "III"))) (re.++ (re.+ (re.union (str.to_re "JJ") (str.to_re "KKK"))) (re.++ (re.* (re.* (str.to_re "LL"))) (re.++ (re.* (re.union (str.to_re "MMM") (str.to_re "NN"))) (re.++ (re.union (re.* (str.to_re "OO")) (re.* (str.to_re "P"))) (re.++ (re.union (re.* (str.to_re "Q")) (re.* (str.to_re "RRR"))) (re.++ (re.union (re.+ (str.to_re "S")) (re.+ (str.to_re "TTT"))) (re.++ (re.+ (re.union (str.to_re "UU") (str.to_re "V"))) (re.++ (re.* (re.union (str.to_re "WWW") (str.to_re "XX"))) (re.++ (re.+ (re.* (str.to_re "YYY"))) (re.++ (re.union (re.+ (str.to_re "ZZZ")) (re.+ (str.to_re "!"))) (re.++ (re.* (re.union (str.to_re """") (str.to_re "##"))) (re.++ (re.+ (re.union (str.to_re "$$$") (str.to_re "%%%"))) (re.++ (re.* (re.* (str.to_re "&&&"))) (re.++ (re.union (re.+ (str.to_re "'")) (re.+ (str.to_re "((("))) (re.++ (re.* (re.* (str.to_re ")))"))) (re.++ (re.union (re.union (str.to_re "***") (str.to_re "++")) (re.union (str.to_re ",,") (str.to_re "---"))) (re.++ (re.* (re.union (str.to_re ".") (str.to_re "/"))) (re.++ (re.union (re.+ (str.to_re "::")) (re.+ (str.to_re ";;"))) (re.++ (re.* (re.+ (str.to_re "<"))) (re.++ (re.union (re.union (str.to_re "=") (str.to_re ">")) (re.union (str.to_re "???") (str.to_re "@@"))) (re.++ (re.union (re.+ (str.to_re "[")) (re.+ (str.to_re "\\\\"))) (re.++ (re.* (re.* (str.to_re "]"))) (re.++ (re.+ (re.* (str.to_re "^"))) (re.++ (re.* (re.union (str.to_re "_") (str.to_re "``"))) (re.++ (re.+ (re.union (str.to_re "{") (str.to_re "||"))) (re.++ (re.* (re.* (str.to_re "}}"))) (re.++ (re.+ (re.* (str.to_re "~~~"))) (re.++ (re.union (re.* (str.to_re "0")) (re.* (str.to_re "11"))) (re.++ (re.+ (re.union (str.to_re "222") (str.to_re "333"))) (re.++ (re.* (re.* (str.to_re "4"))) (re.++ (re.* (re.* (str.to_re "5"))) (re.++ (re.* (re.* (str.to_re "66"))) (re.++ (re.union (re.* (str.to_re "7")) (re.* (str.to_re "88"))) (re.++ (re.union (re.* (str.to_re "9")) (re.* (str.to_re "aa"))) (re.++ (re.* (re.* (str.to_re "bbb"))) (re.++ (re.+ (re.union (str.to_re "ccc") (str.to_re "d"))) (re.++ (re.union (re.union (str.to_re "ee") (str.to_re "fff")) (re.union (str.to_re "g") (str.to_re "hh"))) (re.++ (re.+ (re.+ (str.to_re "i"))) (re.++ (re.union (re.union (str.to_re "jj") (str.to_re "kk")) (re.union (str.to_re "l") (str.to_re "mm"))) (re.++ (re.union (re.union (str.to_re "n") (str.to_re "o")) (re.union (str.to_re "ppp") (str.to_re "qq"))) (re.++ (re.union (re.* (str.to_re "rr")) (re.* (str.to_re "ss"))) (re.++ (re.* (re.+ (str.to_re "t"))) (re.++ (re.* (re.union (str.to_re "uuu") (str.to_re "v"))) (re.++ (re.+ (re.* (str.to_re "w"))) (re.++ (re.+ (re.union (str.to_re "xx") (str.to_re "y"))) (re.++ (re.* (re.union (str.to_re "zz") (str.to_re "AA"))) (re.++ (re.* (re.* (str.to_re "BBB"))) (re.++ (re.* (re.union (str.to_re "CC") (str.to_re "DD"))) (re.++ (re.+ (re.union (str.to_re "EE") (str.to_re "FFF"))) (re.++ (re.* (re.+ (str.to_re "GGG"))) (re.++ (re.* (re.+ (str.to_re "H"))) (re.++ (re.* (re.union (str.to_re "I") (str.to_re "JJJ"))) (re.union (re.union (str.to_re "KKK") (str.to_re "LL")) (re.union (str.to_re "MM") (str.to_re "N"))))))))))))))))))))))))))))))))))))))))))))))))))))))))))))))))))))))))))))))))))
(check-sat)